25
    1    18    18
    2    19    19
    3     3     3
    4     7     7
    5     5     5
    6    13    13
    7    14    14
    8    13    13
    9    15    15
   10    18    18
   11     4     4
   12     6     6
   13    20    20
   14    10    10
   15    14    14
   16     8     8
   17    16    16
   18    11    11
   19     9     9
   20     3     3
   21    18    18
   22    16    16
   23     2     2
   24    12    12
   25    11    11
106
